max:200x0102 + 200x0104 - 30q01 - 40q02 - 50q03;
-3 <= x0102 <= 3;
-5 <= x0104 <= 5;
-2 <= x0203 <= 2;
-4 <= x0403 <= 4;
-3 <= x0405 <= 3;
-3 <= x0305 <= 3;
-3 <= x0306 <= 3;
-5 <= x0506 <= 5;

x0102 = x0203;
x0203 + x0403 = x0305 + x0306;
x0104 = x0403 + x0405;
x0405 + x0305 = x0506;

1y0102 + 1z0102 + 1y0104 + 1z0104 + 2y0203 + 2z0203 + 1y0403 + 1z0403 + 3y0405 + 3z0405 + 2y0305 + 2z0305 + 2y0306 + 2z0306 + 5y0506 + 5z0506 <= 2q01 + 4q02 + 3q03;
1y0102 + 1z0102 + 2y0104 + 2z0104 + 0y0203 + 0z0203 + 1y0403 + 1z0403 + 1y0405 + 1z0405 + 0y0305 + 0z0305 + 2y0306 + 2z0306 + 0y0506 + 0z0506 <= 1q01 + 3q02 + 3q03;
0y0102 + 0z0102 + 1y0104 + 1z0104 + 1y0203 + 1z0203 + 2y0403 + 2z0403 + 0y0405 + 0z0405 + 0y0305 + 0z0305 + 1y0306 + 1z0306 + 0y0506 + 0z0506 <= 3q01 + 0q02 + 3q03;
2y0102 + 2z0102 + 1y0104 + 1z0104 + 1y0203 + 1z0203 + 4y0403 + 4z0403 + 1y0405 + 1z0405 + 2y0305 + 2z0305 + 0y0306 + 0z0306 + 1y0506 + 1z0506 <= 1q01 + 1q02 + 3q03;

y0102 - z0102 = x0102;
y0104 - z0104 = x0104;
y0203 - z0203 = x0203;
y0403 - z0403 = x0403;
y0405 - z0405 = x0405;
y0305 - z0305 = x0305;
y0306 - z0306 = x0306;
y0506 - z0506 = x0506;

y0102 >= 0;
z0102 >= 0;
y0104 >= 0;
z0104 >= 0;
y0203 >= 0;
z0203 >= 0;
y0403 >= 0;
z0403 >= 0;
y0405 >= 0;
z0405 >= 0;
y0305 >= 0;
z0305 >= 0;
y0306 >= 0;
z0306 >= 0;
y0506 >= 0;
z0506 >= 0;
q01 >= 0;
q02 >= 0;
q03 >= 0;

